33D32945 STP File, STP Format Version 1.0

SECTION Comment
Name    "Series C" 
Creator "A. M. Costa" 
Format  "Z.H. Fu and J. K. Hao"
Remark  "Sparse graph with random weights"
#TotalEdgeCost 5520
#BudgetFraction 20
END 

SECTION Graph 
Nodes 500 
Edges 1000 
Root 1
Budget 276
HopLimit 15
E 1 14 3 
E 1 38 4 
E 1 128 1 
E 1 181 6 
E 1 289 6 
E 1 365 6 
E 1 451 2 
E 2 94 4 
E 2 135 3 
E 2 247 8 
E 2 248 3 
E 2 265 4 
E 2 366 7 
E 2 419 10 
E 2 481 7 
E 3 335 5 
E 3 444 2 
E 4 189 5 
E 5 110 8 
E 5 388 6 
E 6 90 5 
E 6 175 7 
E 6 269 9 
E 6 276 1 
E 6 478 10 
E 7 56 2 
E 7 159 9 
E 7 353 3 
E 7 374 2 
E 8 34 2 
E 8 63 2 
E 8 140 7 
E 8 247 9 
E 8 250 7 
E 8 431 9 
E 9 49 1 
E 9 258 3 
E 10 153 4 
E 10 254 7 
E 10 470 9 
E 11 113 8 
E 11 136 8 
E 11 251 3 
E 11 375 4 
E 11 482 5 
E 12 75 6 
E 12 221 4 
E 12 321 3 
E 12 383 7 
E 13 46 3 
E 13 74 4 
E 13 93 10 
E 13 215 2 
E 14 225 7 
E 14 258 5 
E 14 265 10 
E 14 298 3 
E 15 212 3 
E 15 263 9 
E 15 274 4 
E 15 280 3 
E 16 256 5 
E 16 341 2 
E 16 358 10 
E 17 98 6 
E 17 210 2 
E 17 274 10 
E 17 363 2 
E 18 45 10 
E 18 120 2 
E 18 188 4 
E 18 194 10 
E 19 61 1 
E 19 168 2 
E 19 244 9 
E 19 430 9 
E 19 499 3 
E 20 208 7 
E 20 260 9 
E 20 429 3 
E 20 468 4 
E 21 83 7 
E 21 287 9 
E 21 491 8 
E 22 97 1 
E 22 250 3 
E 22 407 8 
E 22 425 6 
E 23 199 7 
E 23 204 9 
E 23 285 10 
E 23 342 9 
E 24 91 6 
E 24 368 8 
E 24 488 1 
E 25 54 1 
E 26 285 3 
E 26 304 5 
E 27 46 7 
E 27 265 6 
E 27 318 1 
E 27 454 6 
E 27 481 10 
E 27 492 2 
E 28 128 3 
E 28 204 5 
E 28 388 5 
E 29 181 7 
E 29 243 1 
E 29 253 5 
E 29 354 2 
E 29 500 6 
E 30 117 6 
E 30 246 4 
E 30 432 9 
E 31 402 6 
E 31 432 7 
E 31 475 1 
E 32 392 1 
E 33 419 10 
E 33 456 9 
E 33 483 7 
E 34 246 10 
E 35 37 10 
E 35 63 9 
E 35 310 5 
E 36 192 8 
E 36 496 1 
E 37 224 9 
E 37 470 9 
E 38 308 6 
E 38 355 6 
E 38 361 9 
E 38 437 10 
E 39 170 2 
E 39 278 7 
E 39 395 5 
E 40 78 7 
E 40 150 4 
E 40 280 9 
E 40 452 9 
E 41 197 2 
E 41 419 9 
E 42 254 1 
E 42 402 5 
E 42 461 8 
E 42 495 7 
E 43 106 8 
E 44 55 7 
E 44 62 9 
E 44 370 8 
E 45 69 7 
E 45 123 9 
E 45 293 4 
E 45 308 2 
E 46 192 10 
E 46 264 8 
E 46 279 3 
E 46 281 9 
E 46 294 3 
E 46 443 10 
E 47 122 3 
E 47 163 5 
E 47 217 10 
E 47 219 10 
E 47 247 7 
E 48 214 4 
E 48 386 6 
E 49 104 8 
E 49 134 5 
E 49 195 4 
E 49 216 10 
E 49 217 3 
E 49 311 4 
E 50 194 1 
E 50 196 2 
E 50 319 6 
E 50 323 1 
E 51 125 6 
E 51 176 3 
E 51 395 7 
E 51 415 5 
E 52 216 3 
E 52 443 10 
E 53 217 9 
E 53 272 6 
E 53 368 6 
E 53 400 6 
E 53 497 5 
E 54 192 4 
E 54 202 4 
E 54 244 7 
E 54 280 4 
E 54 463 1 
E 55 105 9 
E 55 198 7 
E 55 215 4 
E 55 364 5 
E 55 429 4 
E 56 174 10 
E 56 239 8 
E 56 245 5 
E 56 383 3 
E 56 395 9 
E 56 450 3 
E 56 462 10 
E 57 173 9 
E 57 201 2 
E 57 239 8 
E 57 470 5 
E 58 116 1 
E 58 123 1 
E 58 340 8 
E 58 442 9 
E 58 491 1 
E 59 85 8 
E 59 148 5 
E 59 151 1 
E 59 213 2 
E 59 251 3 
E 59 407 6 
E 59 444 3 
E 59 450 3 
E 60 70 6 
E 60 333 7 
E 60 403 8 
E 61 75 10 
E 61 80 3 
E 61 215 10 
E 61 492 7 
E 62 101 7 
E 62 169 1 
E 62 230 10 
E 62 470 8 
E 63 152 5 
E 63 193 10 
E 63 279 2 
E 63 391 3 
E 63 494 4 
E 64 185 1 
E 64 468 1 
E 64 472 5 
E 65 69 9 
E 65 387 6 
E 66 95 1 
E 66 187 9 
E 66 209 6 
E 66 460 4 
E 67 221 5 
E 67 341 8 
E 67 408 5 
E 67 419 9 
E 68 86 8 
E 68 178 7 
E 68 443 4 
E 68 454 7 
E 69 122 3 
E 69 302 3 
E 69 471 5 
E 70 182 1 
E 70 390 2 
E 70 428 7 
E 70 474 8 
E 71 151 1 
E 71 160 6 
E 71 208 1 
E 71 294 10 
E 71 314 2 
E 71 352 6 
E 71 372 3 
E 71 469 1 
E 72 159 8 
E 72 477 5 
E 73 249 7 
E 73 313 4 
E 73 350 3 
E 73 444 9 
E 73 482 9 
E 74 116 10 
E 74 133 8 
E 74 233 9 
E 74 358 7 
E 74 445 2 
E 75 123 4 
E 75 320 8 
E 75 422 10 
E 76 78 9 
E 76 80 4 
E 77 101 5 
E 77 161 2 
E 77 214 2 
E 77 234 1 
E 78 104 10 
E 78 127 6 
E 78 311 3 
E 78 344 9 
E 78 388 5 
E 79 200 9 
E 79 201 4 
E 79 286 4 
E 79 347 7 
E 80 204 4 
E 80 375 4 
E 80 457 9 
E 81 180 9 
E 81 181 2 
E 82 151 7 
E 82 189 1 
E 82 234 10 
E 82 269 1 
E 82 404 1 
E 83 196 8 
E 83 263 3 
E 84 133 9 
E 84 295 2 
E 85 377 2 
E 85 447 8 
E 85 488 1 
E 86 304 7 
E 86 473 10 
E 87 214 7 
E 87 351 10 
E 88 424 2 
E 88 466 3 
E 89 93 5 
E 89 136 4 
E 89 254 8 
E 89 329 2 
E 89 369 3 
E 89 435 4 
E 90 156 6 
E 90 193 6 
E 90 237 8 
E 90 343 1 
E 90 423 4 
E 90 458 5 
E 91 119 7 
E 91 177 3 
E 91 187 8 
E 91 362 3 
E 91 404 5 
E 92 246 5 
E 92 358 5 
E 92 371 10 
E 92 392 10 
E 93 250 10 
E 93 436 10 
E 94 203 1 
E 94 495 7 
E 95 366 2 
E 96 163 7 
E 96 186 10 
E 96 277 5 
E 96 350 9 
E 96 361 2 
E 96 420 1 
E 97 149 6 
E 97 268 4 
E 97 289 2 
E 97 322 6 
E 97 362 7 
E 97 392 6 
E 98 261 2 
E 98 271 1 
E 99 280 3 
E 99 407 7 
E 99 479 1 
E 100 111 8 
E 100 395 4 
E 101 108 7 
E 102 214 5 
E 102 313 2 
E 102 371 9 
E 103 159 9 
E 103 266 1 
E 103 308 6 
E 105 164 10 
E 105 347 10 
E 106 226 1 
E 106 255 8 
E 106 288 9 
E 106 350 8 
E 106 354 1 
E 107 147 3 
E 107 274 3 
E 107 331 3 
E 107 413 8 
E 107 429 1 
E 107 448 10 
E 108 114 1 
E 108 160 1 
E 108 380 1 
E 108 386 2 
E 109 223 9 
E 109 224 5 
E 109 241 4 
E 109 388 2 
E 110 146 8 
E 110 338 9 
E 111 267 9 
E 111 331 10 
E 112 182 4 
E 112 317 1 
E 112 357 1 
E 113 160 8 
E 113 311 10 
E 113 472 8 
E 114 217 7 
E 114 322 10 
E 115 238 5 
E 116 189 8 
E 116 300 9 
E 116 493 7 
E 117 268 1 
E 117 299 8 
E 117 465 8 
E 118 151 1 
E 118 293 5 
E 118 404 5 
E 119 167 9 
E 119 216 4 
E 119 485 5 
E 120 165 5 
E 120 344 9 
E 120 428 7 
E 121 307 5 
E 121 437 8 
E 121 444 9 
E 122 398 2 
E 123 362 2 
E 123 366 6 
E 123 387 4 
E 124 240 8 
E 124 249 9 
E 124 269 6 
E 124 316 6 
E 124 346 1 
E 124 382 3 
E 124 426 7 
E 125 245 9 
E 125 375 8 
E 126 135 2 
E 126 199 9 
E 126 393 9 
E 127 192 3 
E 127 361 1 
E 127 445 3 
E 127 476 3 
E 128 236 2 
E 129 174 10 
E 129 392 9 
E 130 241 5 
E 130 409 8 
E 131 135 8 
E 132 254 6 
E 132 261 4 
E 132 344 10 
E 132 372 1 
E 132 419 2 
E 133 144 3 
E 133 354 8 
E 133 363 8 
E 133 392 10 
E 133 425 1 
E 134 160 5 
E 134 175 5 
E 134 197 2 
E 134 255 1 
E 134 277 9 
E 135 176 4 
E 135 290 10 
E 135 443 1 
E 135 498 3 
E 136 275 3 
E 136 380 5 
E 136 447 2 
E 137 214 1 
E 137 270 4 
E 137 277 9 
E 138 252 1 
E 138 272 7 
E 138 397 1 
E 139 160 9 
E 139 172 3 
E 139 237 1 
E 139 453 8 
E 140 171 9 
E 140 242 1 
E 140 314 10 
E 140 407 2 
E 140 475 7 
E 141 403 7 
E 141 419 8 
E 141 495 2 
E 142 238 5 
E 142 297 9 
E 142 334 7 
E 142 396 2 
E 142 447 3 
E 143 145 8 
E 144 208 4 
E 144 259 7 
E 144 332 2 
E 144 346 9 
E 144 385 9 
E 144 409 9 
E 144 486 9 
E 145 227 5 
E 145 346 7 
E 145 391 10 
E 145 432 8 
E 146 189 6 
E 146 325 1 
E 146 427 1 
E 147 345 9 
E 147 410 3 
E 147 420 2 
E 148 168 10 
E 148 307 9 
E 148 477 6 
E 148 487 7 
E 149 313 3 
E 151 186 8 
E 151 190 5 
E 151 331 9 
E 152 326 6 
E 152 398 6 
E 153 300 8 
E 154 454 4 
E 155 389 5 
E 155 407 6 
E 155 419 4 
E 156 182 5 
E 156 234 2 
E 156 331 5 
E 156 370 3 
E 156 384 10 
E 156 388 9 
E 156 487 8 
E 157 234 1 
E 157 328 8 
E 157 335 9 
E 157 345 9 
E 157 478 5 
E 158 280 10 
E 158 358 2 
E 158 370 4 
E 159 207 4 
E 159 219 6 
E 159 307 4 
E 160 416 6 
E 161 182 3 
E 161 309 4 
E 161 390 10 
E 161 466 4 
E 162 351 7 
E 162 414 1 
E 163 410 10 
E 163 484 10 
E 164 165 2 
E 164 189 9 
E 164 211 3 
E 165 297 5 
E 165 346 3 
E 166 230 10 
E 166 418 1 
E 167 266 10 
E 168 195 5 
E 168 337 7 
E 168 419 5 
E 168 436 6 
E 168 447 9 
E 169 218 7 
E 169 266 10 
E 169 282 4 
E 169 312 7 
E 169 334 4 
E 169 348 6 
E 169 439 5 
E 170 364 1 
E 171 339 7 
E 172 286 9 
E 172 395 10 
E 173 410 10 
E 174 334 7 
E 175 460 7 
E 175 482 10 
E 175 496 4 
E 176 200 3 
E 176 205 6 
E 176 223 3 
E 176 426 6 
E 176 441 10 
E 177 183 4 
E 177 239 10 
E 177 251 1 
E 177 308 1 
E 178 321 9 
E 178 446 5 
E 178 499 3 
E 179 226 2 
E 179 261 8 
E 179 392 3 
E 179 400 5 
E 179 410 5 
E 180 245 6 
E 181 342 6 
E 181 364 10 
E 181 418 4 
E 181 451 5 
E 182 258 3 
E 182 420 4 
E 182 462 6 
E 183 235 1 
E 183 342 4 
E 184 279 3 
E 184 350 6 
E 185 191 10 
E 185 350 7 
E 185 388 8 
E 185 407 9 
E 185 451 5 
E 185 468 1 
E 186 396 4 
E 188 202 2 
E 188 387 9 
E 188 407 3 
E 189 361 7 
E 190 198 2 
E 190 277 6 
E 190 327 1 
E 190 471 6 
E 191 338 7 
E 191 478 8 
E 191 489 5 
E 192 212 10 
E 192 324 3 
E 192 347 3 
E 192 355 10 
E 192 397 10 
E 192 403 8 
E 192 443 4 
E 192 490 1 
E 192 498 2 
E 193 481 2 
E 194 387 6 
E 194 397 3 
E 194 438 6 
E 194 461 5 
E 195 260 8 
E 195 283 8 
E 195 366 1 
E 195 416 9 
E 195 430 10 
E 195 497 9 
E 196 219 9 
E 197 239 4 
E 197 443 7 
E 197 444 4 
E 197 467 1 
E 198 206 9 
E 198 223 3 
E 198 321 8 
E 198 392 10 
E 198 465 2 
E 198 480 7 
E 200 266 4 
E 201 268 8 
E 203 222 7 
E 203 234 10 
E 203 261 3 
E 203 440 6 
E 204 247 7 
E 204 307 5 
E 204 382 4 
E 206 458 7 
E 207 268 7 
E 208 319 6 
E 209 435 4 
E 210 433 1 
E 210 483 6 
E 211 288 3 
E 211 300 9 
E 211 320 5 
E 211 327 8 
E 211 406 6 
E 212 278 9 
E 212 299 4 
E 212 415 8 
E 213 493 9 
E 214 305 2 
E 214 479 3 
E 214 497 4 
E 215 348 6 
E 216 222 4 
E 216 467 9 
E 217 379 2 
E 217 395 10 
E 220 231 1 
E 220 401 3 
E 221 377 7 
E 222 270 8 
E 222 281 1 
E 222 334 3 
E 222 387 6 
E 222 464 10 
E 222 471 7 
E 223 331 2 
E 223 354 7 
E 225 298 3 
E 225 353 1 
E 226 406 6 
E 227 270 4 
E 227 435 5 
E 228 324 8 
E 228 404 10 
E 229 367 8 
E 229 383 3 
E 229 480 6 
E 231 254 6 
E 231 327 2 
E 231 391 5 
E 231 471 10 
E 232 338 6 
E 232 391 2 
E 233 353 2 
E 234 462 4 
E 235 381 4 
E 235 417 3 
E 236 347 2 
E 236 407 7 
E 237 343 1 
E 238 338 4 
E 238 432 5 
E 239 288 3 
E 239 316 2 
E 239 366 6 
E 239 417 5 
E 240 427 7 
E 241 330 4 
E 241 462 7 
E 242 354 3 
E 243 247 7 
E 244 485 1 
E 245 254 8 
E 245 287 1 
E 245 395 6 
E 246 261 2 
E 246 289 4 
E 247 273 6 
E 247 383 8 
E 247 404 2 
E 247 448 5 
E 248 345 6 
E 248 441 5 
E 248 447 6 
E 249 403 6 
E 250 343 9 
E 250 358 8 
E 250 427 7 
E 251 394 9 
E 251 426 7 
E 252 283 2 
E 253 289 10 
E 253 341 6 
E 254 375 6 
E 254 383 6 
E 254 470 5 
E 254 493 3 
E 256 296 2 
E 256 400 3 
E 256 499 3 
E 257 367 7 
E 257 377 2 
E 260 402 8 
E 262 307 6 
E 262 432 5 
E 263 438 6 
E 264 411 5 
E 264 432 3 
E 264 485 5 
E 265 287 4 
E 265 310 5 
E 265 408 2 
E 265 417 1 
E 266 341 3 
E 266 344 7 
E 266 426 3 
E 267 304 10 
E 267 341 1 
E 268 489 8 
E 269 308 6 
E 269 354 8 
E 270 392 8 
E 270 458 2 
E 270 484 3 
E 270 485 2 
E 271 279 7 
E 271 445 10 
E 271 461 5 
E 271 499 2 
E 272 347 6 
E 272 390 9 
E 273 345 4 
E 274 298 5 
E 275 405 2 
E 276 328 9 
E 278 475 6 
E 279 296 8 
E 279 387 10 
E 279 425 2 
E 279 490 4 
E 280 380 5 
E 280 389 2 
E 281 367 8 
E 282 297 9 
E 282 400 10 
E 283 350 1 
E 284 380 1 
E 284 414 7 
E 285 375 9 
E 285 394 8 
E 286 361 10 
E 286 392 3 
E 287 479 4 
E 289 344 4 
E 290 460 1 
E 291 429 9 
E 291 444 10 
E 292 382 2 
E 292 387 3 
E 292 425 2 
E 294 351 2 
E 294 382 7 
E 296 334 7 
E 296 373 6 
E 296 493 6 
E 297 318 7 
E 298 363 9 
E 298 407 1 
E 299 317 1 
E 299 499 10 
E 300 384 2 
E 300 446 5 
E 300 473 7 
E 301 308 1 
E 301 400 10 
E 301 412 1 
E 302 395 10 
E 303 394 2 
E 303 437 8 
E 304 491 8 
E 305 335 3 
E 306 312 10 
E 306 450 7 
E 307 411 6 
E 308 384 8 
E 308 387 5 
E 312 360 5 
E 312 423 3 
E 312 457 1 
E 313 441 6 
E 314 411 6 
E 315 411 10 
E 317 495 2 
E 318 475 10 
E 319 437 1 
E 319 459 9 
E 319 475 2 
E 320 349 6 
E 320 352 4 
E 321 327 6 
E 321 362 2 
E 321 411 6 
E 322 371 5 
E 322 384 4 
E 323 466 2 
E 324 394 3 
E 324 404 7 
E 325 473 6 
E 326 391 1 
E 328 464 8 
E 329 397 10 
E 330 447 10 
E 332 487 7 
E 334 339 1 
E 334 435 4 
E 334 442 10 
E 334 461 8 
E 336 360 1 
E 336 384 9 
E 337 360 2 
E 337 484 9 
E 339 366 4 
E 339 450 9 
E 340 499 3 
E 341 422 9 
E 342 356 1 
E 342 400 7 
E 344 365 8 
E 346 394 5 
E 346 439 3 
E 347 449 7 
E 347 484 6 
E 348 435 3 
E 351 401 5 
E 353 491 5 
E 354 375 4 
E 354 381 3 
E 355 448 4 
E 358 404 4 
E 359 394 10 
E 359 420 8 
E 360 428 5 
E 361 393 2 
E 361 490 6 
E 362 411 9 
E 363 452 8 
E 364 434 1 
E 365 374 6 
E 367 391 3 
E 367 431 6 
E 368 405 9 
E 368 445 3 
E 369 489 5 
E 371 375 2 
E 371 403 6 
E 372 434 6 
E 373 466 6 
E 375 487 7 
E 375 499 7 
E 376 425 9 
E 378 499 10 
E 380 429 3 
E 380 469 3 
E 381 398 1 
E 381 470 9 
E 382 491 5 
E 382 494 7 
E 385 499 6 
E 388 443 10 
E 388 498 5 
E 389 425 6 
E 390 434 10 
E 390 497 9 
E 391 492 2 
E 391 498 10 
E 392 399 1 
E 394 432 9 
E 395 420 6 
E 396 438 9 
E 398 412 7 
E 399 481 2 
E 399 489 9 
E 403 447 1 
E 404 420 4 
E 405 443 2 
E 405 496 10 
E 406 456 9 
E 406 460 1 
E 406 498 1 
E 408 459 5 
E 409 458 3 
E 411 500 3 
E 412 477 3 
E 414 494 2 
E 415 420 9 
E 415 444 7 
E 415 453 5 
E 417 438 4 
E 419 446 2 
E 419 485 7 
E 420 485 7 
E 421 431 10 
E 423 484 4 
E 424 486 6 
E 427 428 9 
E 431 457 5 
E 431 489 5 
E 432 433 8 
E 433 453 1 
E 433 496 4 
E 436 452 6 
E 441 491 2 
E 444 476 8 
E 452 453 5 
E 452 463 8 
E 453 496 6 
E 455 499 9 
E 456 488 9 
E 465 494 10 
E 466 500 2 
E 468 500 6 
E 471 477 3 
E 473 494 10 
E 477 489 6 
E 479 484 6 
E 479 489 4 
E 495 498 3 
E 497 500 8 
END 

SECTION ProfitableVertices 
ProfitableVertices 5 
PV 1 26
PV 261 74
PV 395 97
PV 426 32
PV 480 45
END 

EOF 
